62      4       
14      16      14      17      
0       0       0       0       0       3       2       3       4       
8       0       0       0       7       2       17      18      
3       0       0       6       0       3       9       14      15      
1       0       8       0       0       3       5       10      11      
9       0       10      0       0       3       6       7       16      
6       0       0       2       0       3       19      24      51      
9       0       0       6       0       3       8       12      32      
1       2       0       0       0       2       31      41      
10      0       5       0       0       2       18      44      
1       0       0       5       0       3       13      22      46      
3       0       0       0       9       2       20      31      
5       0       0       0       8       1       49      
1       0       0       0       3       1       30      
1       0       0       7       0       1       42      
2       0       7       0       0       3       25      28      29      
3       0       0       0       1       3       26      27      43      
2       0       0       0       10      3       21      22      54      
8       9       0       0       0       3       20      28      33      
7       2       0       0       0       2       39      41      
9       0       0       0       2       2       36      37      
4       9       0       0       0       2       27      37      
3       0       0       0       6       1       23      
9       0       0       2       0       1       53      
8       2       0       0       0       3       39      48      60      
10      1       0       0       0       1       50      
9       0       0       4       0       1       35      
5       0       5       0       0       3       33      49      52      
4       0       0       5       0       3       43      45      55      
9       0       7       0       0       2       38      39      
7       0       0       0       1       1       34      
5       0       1       0       0       1       47      
8       0       0       0       7       2       34      38      
5       0       0       0       5       3       34      41      50      
8       0       0       0       8       1       36      
8       0       0       7       0       2       37      38      
3       0       1       0       0       1       47      
1       0       0       3       0       1       49      
6       5       0       0       0       3       40      45      51      
10      4       0       0       0       2       59      61      
10      0       0       0       8       2       44      60      
7       1       0       0       0       1       42      
7       0       0       4       0       2       47      57      
5       0       0       0       10      1       48      
8       0       0       0       8       1       59      
10      0       0       0       3       1       48      
2       0       0       10      0       2       50      55      
1       0       1       0       0       1       53      
1       0       0       0       1       1       54      
5       7       0       0       0       1       57      
1       3       0       0       0       2       51      56      
6       0       0       6       0       2       58      60      
10      0       10      0       0       2       53      57      
10      0       0       5       0       2       55      56      
10      0       0       0       1       1       56      
6       4       0       0       0       2       58      59      
3       0       0       5       0       1       58      
2       0       3       0       0       1       61      
3       6       0       0       0       1       61      
3       0       0       2       0       1       62      
3       8       0       0       0       1       62      
6       0       0       0       2       1       62      
0       0       0       0       0       0       